(set-logic QF_UF)
(declare-fun A0 () Bool)
(declare-fun A1 () Bool)
(declare-fun A2 () Bool)
(declare-fun A3 () Bool)
(declare-fun A4 () Bool)
(declare-fun A5 () Bool)
(declare-fun A6 () Bool)
(declare-fun A7 () Bool)
(declare-fun A8 () Bool)
(declare-fun A9 () Bool)
(declare-fun A10 () Bool)
(declare-fun A11 () Bool)
(declare-fun A12 () Bool)
(declare-fun A13 () Bool)
(declare-fun A14 () Bool)
(declare-fun A15 () Bool)
(declare-fun A16 () Bool)
(declare-fun A17 () Bool)
(declare-fun A18 () Bool)
(declare-fun A19 () Bool)
(declare-fun A20 () Bool)
(declare-fun A21 () Bool)
(declare-fun A22 () Bool)
(declare-fun A23 () Bool)
(declare-fun A24 () Bool)
(assert (let ((.def_0 (or A12 A4))) (let ((.def_1 (not .def_0))) (let ((.def_2 (and A22 A8))) (let ((.def_3 (and .def_2 .def_1))) (let ((.def_4 (not A12))) (let ((.def_5 (not A4))) (let ((.def_6 (and .def_5 .def_4))) (let ((.def_7 (not .def_6))) (let ((.def_8 (not A6))) (let ((.def_9 (not A17))) (let ((.def_10 (and .def_9 .def_8))) (let ((.def_11 (not .def_10))) (let ((.def_12 (= .def_11 .def_7))) (let ((.def_13 (or .def_12 .def_3))) (let ((.def_14 (not A10))) (let ((.def_15 (and .def_14 A7))) (let ((.def_16 (and A19 A15))) (let ((.def_17 (not .def_16))) (let ((.def_18 (or .def_17 .def_15))) (let ((.def_19 (and A12 A10))) (let ((.def_20 (not A7))) (let ((.def_21 (or .def_20 A16))) (let ((.def_22 (or .def_21 .def_19))) (let ((.def_23 (not .def_22))) (let ((.def_24 (and .def_23 .def_18))) (let ((.def_25 (or .def_24 .def_13))) (let ((.def_26 (not A3))) (let ((.def_27 (or .def_4 .def_26))) (let ((.def_28 (or A18 A20))) (let ((.def_29 (not .def_28))) (let ((.def_30 (or .def_29 .def_27))) (let ((.def_31 (and A3 A4))) (let ((.def_32 (not A14))) (let ((.def_33 (or .def_32 A19))) (let ((.def_34 (not .def_33))) (let ((.def_35 (and .def_34 .def_31))) (let ((.def_36 (or .def_35 .def_30))) (let ((.def_37 (not .def_36))) (let ((.def_38 (not A5))) (let ((.def_39 (or A15 .def_38))) (let ((.def_40 (not A11))) (let ((.def_41 (not A23))) (let ((.def_42 (and .def_41 .def_40))) (let ((.def_43 (and .def_42 .def_39))) (let ((.def_44 (not .def_43))) (let ((.def_45 (and .def_38 A6))) (let ((.def_46 (not .def_45))) (let ((.def_47 (or A1 A1))) (let ((.def_48 (not .def_47))) (let ((.def_49 (= .def_48 .def_46))) (let ((.def_50 (not .def_49))) (let ((.def_51 (or .def_50 .def_44))) (let ((.def_52 (and .def_51 .def_37))) (let ((.def_53 (not .def_52))) (let ((.def_54 (and .def_53 .def_25))) (let ((.def_55 (and A12 A5))) (let ((.def_56 (and .def_20 A12))) (let ((.def_57 (not .def_56))) (let ((.def_58 (and .def_57 .def_55))) (let ((.def_59 (not .def_58))) (let ((.def_60 (not A24))) (let ((.def_61 (and .def_60 A7))) (let ((.def_62 (and A1 A11))) (let ((.def_63 (not .def_62))) (let ((.def_64 (= .def_63 .def_61))) (let ((.def_65 (not .def_64))) (let ((.def_66 (or .def_65 .def_59))) (let ((.def_67 (not A22))) (let ((.def_68 (or .def_26 .def_67))) (let ((.def_69 (and A13 A0))) (let ((.def_70 (not .def_69))) (let ((.def_71 (or .def_70 .def_68))) (let ((.def_72 (or .def_40 A22))) (let ((.def_73 (not A15))) (let ((.def_74 (or .def_73 A16))) (let ((.def_75 (and .def_74 .def_72))) (let ((.def_76 (= .def_75 .def_71))) (let ((.def_77 (not .def_76))) (let ((.def_78 (and .def_77 .def_66))) (let ((.def_79 (not A21))) (let ((.def_80 (or A23 .def_79))) (let ((.def_81 (not A20))) (let ((.def_82 (or .def_81 A15))) (let ((.def_83 (not .def_82))) (let ((.def_84 (or .def_83 .def_80))) (let ((.def_85 (not A9))) (let ((.def_86 (not A1))) (let ((.def_87 (or .def_86 .def_85))) (let ((.def_88 (not .def_87))) (let ((.def_89 (and A18 A9))) (let ((.def_90 (not .def_89))) (let ((.def_91 (= .def_90 .def_88))) (let ((.def_92 (not .def_91))) (let ((.def_93 (and .def_92 .def_84))) (let ((.def_94 (and A4 .def_5))) (let ((.def_95 (not .def_94))) (let ((.def_96 (not A8))) (let ((.def_97 (and A4 .def_96))) (let ((.def_98 (not .def_97))) (let ((.def_99 (or .def_98 .def_95))) (let ((.def_100 (or A13 A5))) (let ((.def_101 (and .def_5 .def_5))) (let ((.def_102 (not .def_101))) (let ((.def_103 (and .def_102 .def_100))) (let ((.def_104 (not .def_103))) (let ((.def_105 (and .def_104 .def_99))) (let ((.def_106 (not .def_105))) (let ((.def_107 (or .def_106 .def_93))) (let ((.def_108 (not .def_107))) (let ((.def_109 (and .def_108 .def_78))) (let ((.def_110 (and .def_109 .def_54))) (let ((.def_111 (not A0))) (let ((.def_112 (and A5 .def_111))) (let ((.def_113 (not .def_112))) (let ((.def_114 (not A18))) (let ((.def_115 (or .def_114 A3))) (let ((.def_116 (or .def_115 .def_113))) (let ((.def_117 (or A6 .def_26))) (let ((.def_118 (and A17 A2))) (let ((.def_119 (and .def_118 .def_117))) (let ((.def_120 (not .def_119))) (let ((.def_121 (= .def_120 .def_116))) (let ((.def_122 (not .def_121))) (let ((.def_123 (or A7 .def_114))) (let ((.def_124 (not .def_123))) (let ((.def_125 (= .def_41 A1))) (let ((.def_126 (or .def_125 .def_124))) (let ((.def_127 (and .def_41 A24))) (let ((.def_128 (not .def_127))) (let ((.def_129 (and A1 .def_41))) (let ((.def_130 (and .def_129 .def_128))) (let ((.def_131 (or .def_130 .def_126))) (let ((.def_132 (or .def_131 .def_122))) (let ((.def_133 (not .def_132))) (let ((.def_134 (and A19 A19))) (let ((.def_135 (not .def_134))) (let ((.def_136 (= A18 .def_86))) (let ((.def_137 (not .def_136))) (let ((.def_138 (or .def_137 .def_135))) (let ((.def_139 (and A7 A4))) (let ((.def_140 (or A12 A13))) (let ((.def_141 (not .def_140))) (let ((.def_142 (and .def_141 .def_139))) (let ((.def_143 (or .def_142 .def_138))) (let ((.def_144 (or .def_67 A24))) (let ((.def_145 (and .def_14 A1))) (let ((.def_146 (not .def_145))) (let ((.def_147 (and .def_146 .def_144))) (let ((.def_148 (not .def_147))) (let ((.def_149 (not A2))) (let ((.def_150 (or .def_111 .def_149))) (let ((.def_151 (not .def_150))) (let ((.def_152 (or A8 A13))) (let ((.def_153 (and .def_152 .def_151))) (let ((.def_154 (not .def_153))) (let ((.def_155 (and .def_154 .def_148))) (let ((.def_156 (and .def_155 .def_143))) (let ((.def_157 (or .def_156 .def_133))) (let ((.def_158 (and .def_32 A14))) (let ((.def_159 (= .def_79 A13))) (let ((.def_160 (not .def_159))) (let ((.def_161 (and .def_160 .def_158))) (let ((.def_162 (not .def_161))) (let ((.def_163 (and .def_40 .def_67))) (let ((.def_164 (or .def_8 A11))) (let ((.def_165 (or .def_164 .def_163))) (let ((.def_166 (and .def_165 .def_162))) (let ((.def_167 (or A17 .def_4))) (let ((.def_168 (not .def_167))) (let ((.def_169 (or .def_67 A20))) (let ((.def_170 (not .def_169))) (let ((.def_171 (and .def_170 .def_168))) (let ((.def_172 (and A22 .def_5))) (let ((.def_173 (and A3 .def_40))) (let ((.def_174 (not .def_173))) (let ((.def_175 (and .def_174 .def_172))) (let ((.def_176 (or .def_175 .def_171))) (let ((.def_177 (not .def_176))) (let ((.def_178 (or .def_177 .def_166))) (let ((.def_179 (not .def_178))) (let ((.def_180 (and .def_85 .def_79))) (let ((.def_181 (not .def_180))) (let ((.def_182 (= A2 .def_79))) (let ((.def_183 (and .def_182 .def_181))) (let ((.def_184 (or A2 A5))) (let ((.def_185 (not .def_184))) (let ((.def_186 (and .def_79 A20))) (let ((.def_187 (= .def_186 .def_185))) (let ((.def_188 (not .def_187))) (let ((.def_189 (or .def_188 .def_183))) (let ((.def_190 (not .def_189))) (let ((.def_191 (and A9 A15))) (let ((.def_192 (not .def_191))) (let ((.def_193 (and .def_14 A14))) (let ((.def_194 (not .def_193))) (let ((.def_195 (and .def_194 .def_192))) (let ((.def_196 (or .def_14 .def_81))) (let ((.def_197 (and A9 A0))) (let ((.def_198 (not .def_197))) (let ((.def_199 (or .def_198 .def_196))) (let ((.def_200 (not .def_199))) (let ((.def_201 (or .def_200 .def_195))) (let ((.def_202 (not .def_201))) (let ((.def_203 (and .def_202 .def_190))) (let ((.def_204 (or .def_203 .def_179))) (let ((.def_205 (not .def_204))) (let ((.def_206 (or .def_205 .def_157))) (let ((.def_207 (or .def_206 .def_110))) (let ((.def_208 (not A16))) (let ((.def_209 (and .def_208 A5))) (let ((.def_210 (and A14 .def_41))) (let ((.def_211 (= .def_210 .def_209))) (let ((.def_212 (not .def_211))) (let ((.def_213 (and A20 .def_85))) (let ((.def_214 (not .def_213))) (let ((.def_215 (= .def_96 .def_32))) (let ((.def_216 (not .def_215))) (let ((.def_217 (= .def_216 .def_214))) (let ((.def_218 (or .def_217 .def_212))) (let ((.def_219 (and .def_208 .def_4))) (let ((.def_220 (or .def_20 A15))) (let ((.def_221 (not .def_220))) (let ((.def_222 (or .def_221 .def_219))) (let ((.def_223 (not .def_222))) (let ((.def_224 (or .def_73 .def_38))) (let ((.def_225 (not .def_224))) (let ((.def_226 (or .def_149 .def_96))) (let ((.def_227 (not .def_226))) (let ((.def_228 (and .def_227 .def_225))) (let ((.def_229 (not .def_228))) (let ((.def_230 (= .def_229 .def_223))) (let ((.def_231 (or .def_230 .def_218))) (let ((.def_232 (and A23 A20))) (let ((.def_233 (not .def_232))) (let ((.def_234 (or A15 .def_67))) (let ((.def_235 (or .def_234 .def_233))) (let ((.def_236 (not A19))) (let ((.def_237 (and .def_114 .def_236))) (let ((.def_238 (not .def_237))) (let ((.def_239 (or .def_81 A3))) (let ((.def_240 (not .def_239))) (let ((.def_241 (or .def_240 .def_238))) (let ((.def_242 (not .def_241))) (let ((.def_243 (or .def_242 .def_235))) (let ((.def_244 (and .def_86 A0))) (let ((.def_245 (or A9 .def_9))) (let ((.def_246 (or .def_245 .def_244))) (let ((.def_247 (and A6 A4))) (let ((.def_248 (or A24 .def_38))) (let ((.def_249 (and .def_248 .def_247))) (let ((.def_250 (or .def_249 .def_246))) (let ((.def_251 (and .def_250 .def_243))) (let ((.def_252 (not .def_251))) (let ((.def_253 (and .def_252 .def_231))) (let ((.def_254 (not .def_253))) (let ((.def_255 (= .def_38 .def_149))) (let ((.def_256 (not .def_255))) (let ((.def_257 (and A18 A23))) (let ((.def_258 (not .def_257))) (let ((.def_259 (or .def_258 .def_256))) (let ((.def_260 (or A10 .def_32))) (let ((.def_261 (not .def_260))) (let ((.def_262 (= .def_67 A22))) (let ((.def_263 (not .def_262))) (let ((.def_264 (and .def_263 .def_261))) (let ((.def_265 (not .def_264))) (let ((.def_266 (or .def_265 .def_259))) (let ((.def_267 (not .def_266))) (let ((.def_268 (and A13 A16))) (let ((.def_269 (or A7 A1))) (let ((.def_270 (or .def_269 .def_268))) (let ((.def_271 (not .def_270))) (let ((.def_272 (and .def_236 .def_208))) (let ((.def_273 (and A1 .def_111))) (let ((.def_274 (and .def_273 .def_272))) (let ((.def_275 (or .def_274 .def_271))) (let ((.def_276 (or .def_275 .def_267))) (let ((.def_277 (not .def_276))) (let ((.def_278 (or A9 .def_85))) (let ((.def_279 (not .def_278))) (let ((.def_280 (and .def_20 A22))) (let ((.def_281 (not .def_280))) (let ((.def_282 (and .def_281 .def_279))) (let ((.def_283 (not .def_282))) (let ((.def_284 (or .def_73 .def_32))) (let ((.def_285 (not .def_284))) (let ((.def_286 (or A3 A16))) (let ((.def_287 (not .def_286))) (let ((.def_288 (or .def_287 .def_285))) (let ((.def_289 (and .def_288 .def_283))) (let ((.def_290 (or A20 .def_149))) (let ((.def_291 (and A23 .def_41))) (let ((.def_292 (not .def_291))) (let ((.def_293 (or .def_292 .def_290))) (let ((.def_294 (not .def_293))) (let ((.def_295 (= .def_4 A19))) (let ((.def_296 (not .def_295))) (let ((.def_297 (or A2 A10))) (let ((.def_298 (not .def_297))) (let ((.def_299 (and .def_298 .def_296))) (let ((.def_300 (not .def_299))) (let ((.def_301 (or .def_300 .def_294))) (let ((.def_302 (and .def_301 .def_289))) (let ((.def_303 (= .def_302 .def_277))) (let ((.def_304 (and .def_303 .def_254))) (let ((.def_305 (not .def_304))) (let ((.def_306 (and .def_20 .def_236))) (let ((.def_307 (not .def_306))) (let ((.def_308 (or .def_60 A16))) (let ((.def_309 (not .def_308))) (let ((.def_310 (or .def_309 .def_307))) (let ((.def_311 (not .def_310))) (let ((.def_312 (or .def_4 A11))) (let ((.def_313 (or .def_86 A10))) (let ((.def_314 (and .def_313 .def_312))) (let ((.def_315 (= .def_314 .def_311))) (let ((.def_316 (not .def_315))) (let ((.def_317 (and .def_79 A19))) (let ((.def_318 (or A7 A7))) (let ((.def_319 (not .def_318))) (let ((.def_320 (and .def_319 .def_317))) (let ((.def_321 (not .def_320))) (let ((.def_322 (and A20 A13))) (let ((.def_323 (= .def_81 A24))) (let ((.def_324 (or .def_323 .def_322))) (let ((.def_325 (not .def_324))) (let ((.def_326 (and .def_325 .def_321))) (let ((.def_327 (not .def_326))) (let ((.def_328 (= .def_327 .def_316))) (let ((.def_329 (not .def_328))) (let ((.def_330 (not A13))) (let ((.def_331 (or .def_330 A13))) (let ((.def_332 (not .def_331))) (let ((.def_333 (= A9 A21))) (let ((.def_334 (not .def_333))) (let ((.def_335 (and .def_334 .def_332))) (let ((.def_336 (or .def_73 A2))) (let ((.def_337 (or .def_336 .def_90))) (let ((.def_338 (not .def_337))) (let ((.def_339 (and .def_338 .def_335))) (let ((.def_340 (= .def_4 .def_96))) (let ((.def_341 (not .def_340))) (let ((.def_342 (and .def_81 .def_32))) (let ((.def_343 (not .def_342))) (let ((.def_344 (and .def_343 .def_341))) (let ((.def_345 (not .def_344))) (let ((.def_346 (= A23 .def_32))) (let ((.def_347 (not .def_346))) (let ((.def_348 (and A6 A9))) (let ((.def_349 (not .def_348))) (let ((.def_350 (or .def_349 .def_347))) (let ((.def_351 (or .def_350 .def_345))) (let ((.def_352 (and .def_351 .def_339))) (let ((.def_353 (not .def_352))) (let ((.def_354 (or .def_353 .def_329))) (let ((.def_355 (or A22 A1))) (let ((.def_356 (not .def_355))) (let ((.def_357 (and .def_26 A22))) (let ((.def_358 (and .def_357 .def_356))) (let ((.def_359 (and A11 .def_111))) (let ((.def_360 (and .def_67 .def_111))) (let ((.def_361 (not .def_360))) (let ((.def_362 (or .def_361 .def_359))) (let ((.def_363 (not .def_362))) (let ((.def_364 (and .def_363 .def_358))) (let ((.def_365 (and A6 A6))) (let ((.def_366 (not .def_365))) (let ((.def_367 (and A0 A11))) (let ((.def_368 (not .def_367))) (let ((.def_369 (= .def_368 .def_366))) (let ((.def_370 (not .def_369))) (let ((.def_371 (or A10 .def_79))) (let ((.def_372 (and .def_81 A0))) (let ((.def_373 (not .def_372))) (let ((.def_374 (or .def_373 .def_371))) (let ((.def_375 (and .def_374 .def_370))) (let ((.def_376 (not .def_375))) (let ((.def_377 (and .def_376 .def_364))) (let ((.def_378 (and A4 A15))) (let ((.def_379 (and .def_208 .def_208))) (let ((.def_380 (not .def_379))) (let ((.def_381 (and .def_380 .def_378))) (let ((.def_382 (not .def_381))) (let ((.def_383 (and .def_208 .def_40))) (let ((.def_384 (not .def_383))) (let ((.def_385 (or A15 A19))) (let ((.def_386 (or .def_385 .def_384))) (let ((.def_387 (not .def_386))) (let ((.def_388 (or .def_387 .def_382))) (let ((.def_389 (not .def_388))) (let ((.def_390 (and A5 A7))) (let ((.def_391 (not .def_390))) (let ((.def_392 (or A18 .def_96))) (let ((.def_393 (and .def_392 .def_391))) (let ((.def_394 (or .def_5 .def_236))) (let ((.def_395 (not .def_394))) (let ((.def_396 (and A9 .def_41))) (let ((.def_397 (or .def_396 .def_395))) (let ((.def_398 (and .def_397 .def_393))) (let ((.def_399 (and .def_398 .def_389))) (let ((.def_400 (not .def_399))) (let ((.def_401 (and .def_400 .def_377))) (let ((.def_402 (not .def_401))) (let ((.def_403 (or .def_402 .def_354))) (let ((.def_404 (and .def_403 .def_305))) (let ((.def_405 (or .def_404 .def_207))) .def_405)))))))))))))))))))))))))))))))))))))))))))))))))))))))))))))))))))))))))))))))))))))))))))))))))))))))))))))))))))))))))))))))))))))))))))))))))))))))))))))))))))))))))))))))))))))))))))))))))))))))))))))))))))))))))))))))))))))))))))))))))))))))))))))))))))))))))))))))))))))))))))))))))))))))))))))))))))))))))))))))))))))))))))))))))))))))))))))))))))))))))))))))))))))))))))))))))))))))))))))))))))))))
(check-sat)
